209410	1
275722	1113
198161	1
240926	3
269612	1
266539	1
234803	2
198193	16
192574	16
371768	1
192573	13
198731	150
321354	2
227939	6
252002	33
258916	85
292972	8
222824	2
217971	1
238970	9
198012	26
211585	3
318086	43
238976	8
482434	1
199309	8
327060	31
222865	2
222868	14
447633	1
198043	37
172958	4
273819	11
259233	1
218027	6
207530	9
199336	1
274613	7
200630	14
263613	5
277176	365
196541	11
206528	2
183492	629
196298	1
202958	1
221139	193
286934	1
112599	2
197604	1
192756	6
